;; translated from ./bv/kbfiltr_simpl1.cil.vmt
;; original benchmark available at: https://es-static.fbk.eu/people/griggio/ic3ia/index.html
;; author: Alberto Griggio <griggio@fbk.eu>
(set-logic HORN)
(declare-fun state (Bool Bool Bool Bool (_ BitVec 32) (_ BitVec 32) (_ BitVec 32) (_ BitVec 32) (_ BitVec 32) (_ BitVec 32) (_ BitVec 32) (_ BitVec 32) (_ BitVec 32) (_ BitVec 32) (_ BitVec 32) (_ BitVec 32) (_ BitVec 32) (_ BitVec 32) (_ BitVec 32) (_ BitVec 32) (_ BitVec 32) (_ BitVec 32) (_ BitVec 32)) Bool)
(assert (forall ((|setEventCalled| (_ BitVec 32)) (|setEventCalled.next| (_ BitVec 32)) (|irp_choice__11$main| (_ BitVec 32)) (|irp_choice__11$main.next| (_ BitVec 32)) (|s| (_ BitVec 32)) (|.PC.3.next| Bool) (|s.next| (_ BitVec 32)) (|myStatus| (_ BitVec 32)) (|myStatus.next| (_ BitVec 32)) (|returnVal2__148$main.next| (_ BitVec 32)) (|returnVal2__148$main| (_ BitVec 32)) (|returnVal2__118$main.next| (_ BitVec 32)) (|returnVal2__118$main| (_ BitVec 32)) (|compRegistered.next| (_ BitVec 32)) (|compRegistered| (_ BitVec 32)) (|__INLINE_TEMP__67$main.next| (_ BitVec 32)) (|__INLINE_TEMP__67$main| (_ BitVec 32)) (|status__2$main.next| (_ BitVec 32)) (|status__2$main| (_ BitVec 32)) (|__INLINE_TEMP__113$main.next| (_ BitVec 32)) (|__INLINE_TEMP__113$main| (_ BitVec 32)) (|__RET__$main.next| (_ BitVec 32)) (|__RET__$main| (_ BitVec 32)) (|status__27$main.next| (_ BitVec 32)) (|status__27$main| (_ BitVec 32)) (|__INLINE_TEMP__0$main.next| (_ BitVec 32)) (|__INLINE_TEMP__0$main| (_ BitVec 32)) (|__INLINE_TEMP__19$main.next| (_ BitVec 32)) (|__INLINE_TEMP__19$main| (_ BitVec 32)) (|lowerDriverReturn.next| (_ BitVec 32)) (|lowerDriverReturn| (_ BitVec 32)) (|returnVal2__196$main| (_ BitVec 32)) (|returnVal2__196$main.next| (_ BitVec 32)) (|returnVal2__72$main.next| (_ BitVec 32)) (|returnVal2__72$main| (_ BitVec 32)) (|irpStack__MinorFunction__35$main| (_ BitVec 32)) (|irpStack__MinorFunction__35$main.next| (_ BitVec 32)) (|__INLINE_TEMP__191$main.next| (_ BitVec 32)) (|__INLINE_TEMP__191$main| (_ BitVec 32)) (|s.SSA.2.ssa| (_ BitVec 32)) (|__NONDET__71__82$main#28| (_ BitVec 32)) (|__NONDET__10__14$main#26| (_ BitVec 32)) (|__NONDET_INLINE_INIT__12__12$main#25| (_ BitVec 32)) (|myStatus.SSA.1.ssa| (_ BitVec 32)) (|s.SSA.1.ssa| (_ BitVec 32)) (|setEventCalled.SSA.1.ssa| (_ BitVec 32)) (|__NONDET_INLINE_INIT__36__48$main#27| (_ BitVec 32)) (|__NONDET__71__83$main#29| (_ BitVec 32)) (|__NONDET__71__82$main#23| (_ BitVec 32)) (|__NONDET__10__14$main#21| (_ BitVec 32)) (|__NONDET_INLINE_INIT__12__12$main#20| (_ BitVec 32)) (|__NONDET_INLINE_INIT__36__48$main#22| (_ BitVec 32)) (|__NONDET__71__83$main#24| (_ BitVec 32)) (|__NONDET__71__82$main#18| (_ BitVec 32)) (|__NONDET__10__14$main#16| (_ BitVec 32)) (|__NONDET_INLINE_INIT__12__12$main#15| (_ BitVec 32)) (|__NONDET_INLINE_INIT__36__48$main#17| (_ BitVec 32)) (|__NONDET__71__83$main#19| (_ BitVec 32)) (|__NONDET__117__112$main#13| (_ BitVec 32)) (|__NONDET__10__14$main#11| (_ BitVec 32)) (|__NONDET_INLINE_INIT__12__12$main#10| (_ BitVec 32)) (|__NONDET_INLINE_INIT__36__48$main#12| (_ BitVec 32)) (|__NONDET__117__113$main#14| (_ BitVec 32)) (|__NONDET__147__134$main#8| (_ BitVec 32)) (|__NONDET__10__14$main#6| (_ BitVec 32)) (|__NONDET_INLINE_INIT__12__12$main#5| (_ BitVec 32)) (|__NONDET_INLINE_INIT__36__48$main#7| (_ BitVec 32)) (|__NONDET__147__135$main#9| (_ BitVec 32)) (|__NONDET__195__156$main#3| (_ BitVec 32)) (|__NONDET__10__14$main#1| (_ BitVec 32)) (|__NONDET_INLINE_INIT__12__12$main#0| (_ BitVec 32)) (|__NONDET_INLINE_INIT__36__48$main#2| (_ BitVec 32)) (|__NONDET__195__157$main#4| (_ BitVec 32)) (|.PC.2.next| Bool) (|.PC.0.next| Bool) (|.PC.1.next| Bool) (|.PC.3| Bool) (|.PC.2| Bool) (|.PC.1| Bool) (|.PC.0| Bool)) (=> (let ((.def_18 (not .PC.3)))
(let ((.def_15 (not .PC.2)))
(let ((.def_12 (not .PC.1)))
(let ((.def_10 (not .PC.0)))
(let ((.def_13 (and .def_10 .def_12)))
(let ((.def_16 (and .def_13 .def_15)))
(let ((.def_19 (and .def_16 .def_18)))
.def_19))))))) (state |.PC.0| |.PC.1| |.PC.2| |.PC.3| |returnVal2__118$main| |returnVal2__148$main| |compRegistered| |__INLINE_TEMP__67$main| |status__2$main| |__INLINE_TEMP__113$main| |__RET__$main| |status__27$main| |__INLINE_TEMP__0$main| |__INLINE_TEMP__19$main| |lowerDriverReturn| |returnVal2__72$main| |__INLINE_TEMP__191$main| |returnVal2__196$main| |irpStack__MinorFunction__35$main| |myStatus| |s| |irp_choice__11$main| |setEventCalled|))))
(assert (forall ((|setEventCalled| (_ BitVec 32)) (|setEventCalled.next| (_ BitVec 32)) (|irp_choice__11$main| (_ BitVec 32)) (|irp_choice__11$main.next| (_ BitVec 32)) (|s| (_ BitVec 32)) (|.PC.3.next| Bool) (|s.next| (_ BitVec 32)) (|myStatus| (_ BitVec 32)) (|myStatus.next| (_ BitVec 32)) (|returnVal2__148$main.next| (_ BitVec 32)) (|returnVal2__148$main| (_ BitVec 32)) (|returnVal2__118$main.next| (_ BitVec 32)) (|returnVal2__118$main| (_ BitVec 32)) (|compRegistered.next| (_ BitVec 32)) (|compRegistered| (_ BitVec 32)) (|__INLINE_TEMP__67$main.next| (_ BitVec 32)) (|__INLINE_TEMP__67$main| (_ BitVec 32)) (|status__2$main.next| (_ BitVec 32)) (|status__2$main| (_ BitVec 32)) (|__INLINE_TEMP__113$main.next| (_ BitVec 32)) (|__INLINE_TEMP__113$main| (_ BitVec 32)) (|__RET__$main.next| (_ BitVec 32)) (|__RET__$main| (_ BitVec 32)) (|status__27$main.next| (_ BitVec 32)) (|status__27$main| (_ BitVec 32)) (|__INLINE_TEMP__0$main.next| (_ BitVec 32)) (|__INLINE_TEMP__0$main| (_ BitVec 32)) (|__INLINE_TEMP__19$main.next| (_ BitVec 32)) (|__INLINE_TEMP__19$main| (_ BitVec 32)) (|lowerDriverReturn.next| (_ BitVec 32)) (|lowerDriverReturn| (_ BitVec 32)) (|returnVal2__196$main| (_ BitVec 32)) (|returnVal2__196$main.next| (_ BitVec 32)) (|returnVal2__72$main.next| (_ BitVec 32)) (|returnVal2__72$main| (_ BitVec 32)) (|irpStack__MinorFunction__35$main| (_ BitVec 32)) (|irpStack__MinorFunction__35$main.next| (_ BitVec 32)) (|__INLINE_TEMP__191$main.next| (_ BitVec 32)) (|__INLINE_TEMP__191$main| (_ BitVec 32)) (|s.SSA.2.ssa| (_ BitVec 32)) (|__NONDET__71__82$main#28| (_ BitVec 32)) (|__NONDET__10__14$main#26| (_ BitVec 32)) (|__NONDET_INLINE_INIT__12__12$main#25| (_ BitVec 32)) (|myStatus.SSA.1.ssa| (_ BitVec 32)) (|s.SSA.1.ssa| (_ BitVec 32)) (|setEventCalled.SSA.1.ssa| (_ BitVec 32)) (|__NONDET_INLINE_INIT__36__48$main#27| (_ BitVec 32)) (|__NONDET__71__83$main#29| (_ BitVec 32)) (|__NONDET__71__82$main#23| (_ BitVec 32)) (|__NONDET__10__14$main#21| (_ BitVec 32)) (|__NONDET_INLINE_INIT__12__12$main#20| (_ BitVec 32)) (|__NONDET_INLINE_INIT__36__48$main#22| (_ BitVec 32)) (|__NONDET__71__83$main#24| (_ BitVec 32)) (|__NONDET__71__82$main#18| (_ BitVec 32)) (|__NONDET__10__14$main#16| (_ BitVec 32)) (|__NONDET_INLINE_INIT__12__12$main#15| (_ BitVec 32)) (|__NONDET_INLINE_INIT__36__48$main#17| (_ BitVec 32)) (|__NONDET__71__83$main#19| (_ BitVec 32)) (|__NONDET__117__112$main#13| (_ BitVec 32)) (|__NONDET__10__14$main#11| (_ BitVec 32)) (|__NONDET_INLINE_INIT__12__12$main#10| (_ BitVec 32)) (|__NONDET_INLINE_INIT__36__48$main#12| (_ BitVec 32)) (|__NONDET__117__113$main#14| (_ BitVec 32)) (|__NONDET__147__134$main#8| (_ BitVec 32)) (|__NONDET__10__14$main#6| (_ BitVec 32)) (|__NONDET_INLINE_INIT__12__12$main#5| (_ BitVec 32)) (|__NONDET_INLINE_INIT__36__48$main#7| (_ BitVec 32)) (|__NONDET__147__135$main#9| (_ BitVec 32)) (|__NONDET__195__156$main#3| (_ BitVec 32)) (|__NONDET__10__14$main#1| (_ BitVec 32)) (|__NONDET_INLINE_INIT__12__12$main#0| (_ BitVec 32)) (|__NONDET_INLINE_INIT__36__48$main#2| (_ BitVec 32)) (|__NONDET__195__157$main#4| (_ BitVec 32)) (|.PC.2.next| Bool) (|.PC.0.next| Bool) (|.PC.1.next| Bool) (|.PC.3| Bool) (|.PC.2| Bool) (|.PC.1| Bool) (|.PC.0| Bool)) (=> (and (state |.PC.0| |.PC.1| |.PC.2| |.PC.3| |returnVal2__118$main| |returnVal2__148$main| |compRegistered| |__INLINE_TEMP__67$main| |status__2$main| |__INLINE_TEMP__113$main| |__RET__$main| |status__27$main| |__INLINE_TEMP__0$main| |__INLINE_TEMP__19$main| |lowerDriverReturn| |returnVal2__72$main| |__INLINE_TEMP__191$main| |returnVal2__196$main| |irpStack__MinorFunction__35$main| |myStatus| |s| |irp_choice__11$main| |setEventCalled|) (let ((.def_15 (not .PC.2)))
(let ((.def_12 (not .PC.1)))
(let ((.def_10 (not .PC.0)))
(let ((.def_13 (and .def_10 .def_12)))
(let ((.def_16 (and .def_13 .def_15)))
(let ((.def_701 (and .def_16 .PC.3)))
(let ((.def_322 (not .PC.0.next)))
(let ((.def_255 (not .PC.1.next)))
(let ((.def_451 (and .def_255 .def_322)))
(let ((.def_259 (not .PC.2.next)))
(let ((.def_674 (and .def_259 .def_451)))
(let ((.def_675 (and .PC.3.next .def_674)))
(let ((.def_702 (and .def_675 .def_701)))
(let ((.def_679 (and .PC.0 .def_12)))
(let ((.def_697 (and .def_15 .def_679)))
(let ((.def_18 (not .PC.3)))
(let ((.def_698 (and .def_18 .def_697)))
(let ((.def_672 (= setEventCalled.next setEventCalled)))
(let ((.def_666 (= irp_choice__11$main.next irp_choice__11$main)))
(let ((.def_660 (= s.next s)))
(let ((.def_655 (= myStatus.next myStatus)))
(let ((.def_208 (= returnVal2__148$main returnVal2__148$main.next)))
(let ((.def_204 (= returnVal2__118$main returnVal2__118$main.next)))
(let ((.def_648 (and .def_204 .def_208)))
(let ((.def_212 (= compRegistered compRegistered.next)))
(let ((.def_649 (and .def_212 .def_648)))
(let ((.def_216 (= __INLINE_TEMP__67$main __INLINE_TEMP__67$main.next)))
(let ((.def_650 (and .def_216 .def_649)))
(let ((.def_220 (= status__2$main status__2$main.next)))
(let ((.def_651 (and .def_220 .def_650)))
(let ((.def_224 (= __INLINE_TEMP__113$main __INLINE_TEMP__113$main.next)))
(let ((.def_652 (and .def_224 .def_651)))
(let ((.def_228 (= __RET__$main __RET__$main.next)))
(let ((.def_653 (and .def_228 .def_652)))
(let ((.def_656 (and .def_653 .def_655)))
(let ((.def_232 (= status__27$main status__27$main.next)))
(let ((.def_657 (and .def_232 .def_656)))
(let ((.def_236 (= __INLINE_TEMP__0$main __INLINE_TEMP__0$main.next)))
(let ((.def_658 (and .def_236 .def_657)))
(let ((.def_661 (and .def_658 .def_660)))
(let ((.def_240 (= __INLINE_TEMP__19$main __INLINE_TEMP__19$main.next)))
(let ((.def_662 (and .def_240 .def_661)))
(let ((.def_244 (= lowerDriverReturn lowerDriverReturn.next)))
(let ((.def_663 (and .def_244 .def_662)))
(let ((.def_318 (= returnVal2__196$main.next returnVal2__196$main)))
(let ((.def_664 (and .def_318 .def_663)))
(let ((.def_667 (and .def_664 .def_666)))
(let ((.def_248 (= returnVal2__72$main returnVal2__72$main.next)))
(let ((.def_668 (and .def_248 .def_667)))
(let ((.def_647 (= irpStack__MinorFunction__35$main.next irpStack__MinorFunction__35$main)))
(let ((.def_669 (and .def_647 .def_668)))
(let ((.def_252 (= __INLINE_TEMP__191$main __INLINE_TEMP__191$main.next)))
(let ((.def_670 (and .def_252 .def_669)))
(let ((.def_673 (and .def_670 .def_672)))
(let ((.def_676 (and .def_673 .def_675)))
(let ((.def_699 (and .def_676 .def_698)))
(let ((.def_643 (and .def_10 .PC.1)))
(let ((.def_693 (and .def_15 .def_643)))
(let ((.def_694 (and .def_18 .def_693)))
(let ((.def_695 (and .def_676 .def_694)))
(let ((.def_688 (and .PC.0 .PC.1)))
(let ((.def_689 (and .def_15 .def_688)))
(let ((.def_690 (and .def_18 .def_689)))
(let ((.def_691 (and .def_676 .def_690)))
(let ((.def_684 (and .def_13 .PC.2)))
(let ((.def_685 (and .def_18 .def_684)))
(let ((.def_686 (and .def_676 .def_685)))
(let ((.def_680 (and .PC.2 .def_679)))
(let ((.def_681 (and .def_18 .def_680)))
(let ((.def_682 (and .def_676 .def_681)))
(let ((.def_644 (and .PC.2 .def_643)))
(let ((.def_645 (and .def_18 .def_644)))
(let ((.def_677 (and .def_645 .def_676)))
(let ((.def_323 (and .PC.1.next .def_322)))
(let ((.def_638 (and .PC.2.next .def_323)))
(let ((.def_262 (not .PC.3.next)))
(let ((.def_639 (and .def_262 .def_638)))
(let ((.def_527 (= status__27$main.next (_ bv259 32))))
(let ((.def_624 (not .def_527)))
(let ((.def_604 (= s.SSA.2.ssa (_ bv1 32))))
(let ((.def_576 (= |__NONDET__71__82$main#28| (_ bv0 32))))
(let ((.def_577 (not .def_576)))
(let ((.def_565 (= |__NONDET__10__14$main#26| (_ bv3 32))))
(let ((.def_555 (= irp_choice__11$main.next |__NONDET_INLINE_INIT__12__12$main#25|)))
(let ((.def_83 (= myStatus.SSA.1.ssa (_ bv0 32))))
(let ((.def_556 (and .def_83 .def_555)))
(let ((.def_85 (= irp_choice__11$main.next (_ bv0 32))))
(let ((.def_91 (not .def_85)))
(let ((.def_559 (and .def_91 .def_556)))
(let ((.def_93 (= myStatus.SSA.1.ssa myStatus.next)))
(let ((.def_560 (and .def_93 .def_559)))
(let ((.def_557 (and .def_85 .def_556)))
(let ((.def_89 (= myStatus.next (_ bv3221225659 32))))
(let ((.def_558 (and .def_89 .def_557)))
(let ((.def_561 (or .def_558 .def_560)))
(let ((.def_97 (= s.SSA.1.ssa (_ bv1 32))))
(let ((.def_562 (and .def_97 .def_561)))
(let ((.def_403 (= setEventCalled.SSA.1.ssa (_ bv0 32))))
(let ((.def_563 (and .def_403 .def_562)))
(let ((.def_566 (and .def_563 .def_565)))
(let ((.def_553 (= irpStack__MinorFunction__35$main.next |__NONDET_INLINE_INIT__36__48$main#27|)))
(let ((.def_567 (and .def_553 .def_566)))
(let ((.def_106 (= irpStack__MinorFunction__35$main.next (_ bv0 32))))
(let ((.def_568 (and .def_106 .def_567)))
(let ((.def_410 (= compRegistered.next (_ bv1 32))))
(let ((.def_569 (and .def_410 .def_568)))
(let ((.def_412 (= compRegistered.next (_ bv0 32))))
(let ((.def_572 (and .def_412 .def_569)))
(let ((.def_418 (= setEventCalled.next setEventCalled.SSA.1.ssa)))
(let ((.def_573 (and .def_418 .def_572)))
(let ((.def_413 (not .def_412)))
(let ((.def_570 (and .def_413 .def_569)))
(let ((.def_415 (= setEventCalled.next (_ bv1 32))))
(let ((.def_571 (and .def_415 .def_570)))
(let ((.def_574 (or .def_571 .def_573)))
(let ((.def_578 (and .def_574 .def_577)))
(let ((.def_550 (= |__NONDET__71__83$main#29| (_ bv1 32))))
(let ((.def_583 (and .def_550 .def_578)))
(let ((.def_432 (= returnVal2__72$main.next (_ bv3221225473 32))))
(let ((.def_584 (and .def_432 .def_583)))
(let ((.def_581 (and .def_574 .def_576)))
(let ((.def_429 (= returnVal2__72$main.next (_ bv0 32))))
(let ((.def_582 (and .def_429 .def_581)))
(let ((.def_585 (or .def_582 .def_584)))
(let ((.def_551 (not .def_550)))
(let ((.def_579 (and .def_551 .def_578)))
(let ((.def_426 (= returnVal2__72$main.next (_ bv259 32))))
(let ((.def_580 (and .def_426 .def_579)))
(let ((.def_586 (or .def_580 .def_585)))
(let ((.def_502 (not .def_97)))
(let ((.def_592 (and .def_502 .def_586)))
(let ((.def_504 (= s.SSA.1.ssa (_ bv5 32))))
(let ((.def_598 (and .def_504 .def_592)))
(let ((.def_516 (not .def_426)))
(let ((.def_603 (and .def_516 .def_598)))
(let ((.def_605 (and .def_603 .def_604)))
(let ((.def_500 (= lowerDriverReturn.next returnVal2__72$main.next)))
(let ((.def_606 (and .def_500 .def_605)))
(let ((.def_600 (= s.SSA.2.ssa (_ bv6 32))))
(let ((.def_599 (and .def_426 .def_598)))
(let ((.def_601 (and .def_599 .def_600)))
(let ((.def_602 (and .def_500 .def_601)))
(let ((.def_607 (or .def_602 .def_606)))
(let ((.def_595 (= s.SSA.2.ssa (_ bv4 32))))
(let ((.def_505 (not .def_504)))
(let ((.def_593 (and .def_505 .def_592)))
(let ((.def_507 (= s.SSA.1.ssa (_ bv3 32))))
(let ((.def_594 (and .def_507 .def_593)))
(let ((.def_596 (and .def_594 .def_595)))
(let ((.def_597 (and .def_500 .def_596)))
(let ((.def_608 (or .def_597 .def_607)))
(let ((.def_589 (= s.SSA.2.ssa (_ bv7 32))))
(let ((.def_587 (and .def_97 .def_586)))
(let ((.def_590 (and .def_587 .def_589)))
(let ((.def_591 (and .def_500 .def_590)))
(let ((.def_609 (or .def_591 .def_608)))
(let ((.def_523 (= __INLINE_TEMP__67$main.next returnVal2__72$main.next)))
(let ((.def_610 (and .def_523 .def_609)))
(let ((.def_525 (= __INLINE_TEMP__67$main.next status__27$main.next)))
(let ((.def_611 (and .def_525 .def_610)))
(let ((.def_625 (and .def_611 .def_624)))
(let ((.def_621 (= s.next s.SSA.2.ssa)))
(let ((.def_626 (and .def_621 .def_625)))
(let ((.def_612 (and .def_527 .def_611)))
(let ((.def_613 (and .def_600 .def_612)))
(let ((.def_531 (not .def_415)))
(let ((.def_618 (and .def_531 .def_613)))
(let ((.def_616 (not .def_600)))
(let ((.def_617 (and .def_612 .def_616)))
(let ((.def_619 (or .def_617 .def_618)))
(let ((.def_620 (and .def_616 .def_619)))
(let ((.def_622 (and .def_620 .def_621)))
(let ((.def_614 (and .def_415 .def_613)))
(let ((.def_194 (= s.next (_ bv1 32))))
(let ((.def_615 (and .def_194 .def_614)))
(let ((.def_623 (or .def_615 .def_622)))
(let ((.def_627 (or .def_623 .def_626)))
(let ((.def_195 (not .def_194)))
(let ((.def_628 (and .def_195 .def_627)))
(let ((.def_629 (and .def_204 .def_628)))
(let ((.def_630 (and .def_208 .def_629)))
(let ((.def_631 (and .def_220 .def_630)))
(let ((.def_632 (and .def_224 .def_631)))
(let ((.def_633 (and .def_228 .def_632)))
(let ((.def_634 (and .def_236 .def_633)))
(let ((.def_635 (and .def_240 .def_634)))
(let ((.def_636 (and .def_318 .def_635)))
(let ((.def_637 (and .def_252 .def_636)))
(let ((.def_640 (and .def_637 .def_639)))
(let ((.def_19 (and .def_16 .def_18)))
(let ((.def_641 (and .def_19 .def_640)))
(let ((.def_257 (and .def_255 .PC.0.next)))
(let ((.def_544 (and .def_257 .PC.2.next)))
(let ((.def_545 (and .def_262 .def_544)))
(let ((.def_486 (= |__NONDET__71__82$main#23| (_ bv0 32))))
(let ((.def_487 (not .def_486)))
(let ((.def_475 (= |__NONDET__10__14$main#21| (_ bv3 32))))
(let ((.def_465 (= irp_choice__11$main.next |__NONDET_INLINE_INIT__12__12$main#20|)))
(let ((.def_466 (and .def_83 .def_465)))
(let ((.def_469 (and .def_91 .def_466)))
(let ((.def_470 (and .def_93 .def_469)))
(let ((.def_467 (and .def_85 .def_466)))
(let ((.def_468 (and .def_89 .def_467)))
(let ((.def_471 (or .def_468 .def_470)))
(let ((.def_472 (and .def_97 .def_471)))
(let ((.def_473 (and .def_403 .def_472)))
(let ((.def_476 (and .def_473 .def_475)))
(let ((.def_463 (= irpStack__MinorFunction__35$main.next |__NONDET_INLINE_INIT__36__48$main#22|)))
(let ((.def_477 (and .def_463 .def_476)))
(let ((.def_478 (and .def_106 .def_477)))
(let ((.def_479 (and .def_410 .def_478)))
(let ((.def_482 (and .def_412 .def_479)))
(let ((.def_483 (and .def_418 .def_482)))
(let ((.def_480 (and .def_413 .def_479)))
(let ((.def_481 (and .def_415 .def_480)))
(let ((.def_484 (or .def_481 .def_483)))
(let ((.def_488 (and .def_484 .def_487)))
(let ((.def_460 (= |__NONDET__71__83$main#24| (_ bv1 32))))
(let ((.def_493 (and .def_460 .def_488)))
(let ((.def_494 (and .def_432 .def_493)))
(let ((.def_491 (and .def_484 .def_486)))
(let ((.def_492 (and .def_429 .def_491)))
(let ((.def_495 (or .def_492 .def_494)))
(let ((.def_461 (not .def_460)))
(let ((.def_489 (and .def_461 .def_488)))
(let ((.def_490 (and .def_426 .def_489)))
(let ((.def_496 (or .def_490 .def_495)))
(let ((.def_503 (and .def_496 .def_502)))
(let ((.def_512 (and .def_503 .def_504)))
(let ((.def_517 (and .def_512 .def_516)))
(let ((.def_518 (and .def_194 .def_517)))
(let ((.def_519 (and .def_500 .def_518)))
(let ((.def_513 (and .def_426 .def_512)))
(let ((.def_457 (= s.next (_ bv6 32))))
(let ((.def_514 (and .def_457 .def_513)))
(let ((.def_515 (and .def_500 .def_514)))
(let ((.def_520 (or .def_515 .def_519)))
(let ((.def_509 (= s.next (_ bv4 32))))
(let ((.def_506 (and .def_503 .def_505)))
(let ((.def_508 (and .def_506 .def_507)))
(let ((.def_510 (and .def_508 .def_509)))
(let ((.def_511 (and .def_500 .def_510)))
(let ((.def_521 (or .def_511 .def_520)))
(let ((.def_498 (= s.next (_ bv7 32))))
(let ((.def_497 (and .def_97 .def_496)))
(let ((.def_499 (and .def_497 .def_498)))
(let ((.def_501 (and .def_499 .def_500)))
(let ((.def_522 (or .def_501 .def_521)))
(let ((.def_524 (and .def_522 .def_523)))
(let ((.def_526 (and .def_524 .def_525)))
(let ((.def_528 (and .def_526 .def_527)))
(let ((.def_530 (and .def_457 .def_528)))
(let ((.def_532 (and .def_530 .def_531)))
(let ((.def_458 (not .def_457)))
(let ((.def_529 (and .def_458 .def_528)))
(let ((.def_533 (or .def_529 .def_532)))
(let ((.def_534 (and .def_457 .def_533)))
(let ((.def_535 (and .def_204 .def_534)))
(let ((.def_536 (and .def_208 .def_535)))
(let ((.def_537 (and .def_220 .def_536)))
(let ((.def_538 (and .def_224 .def_537)))
(let ((.def_539 (and .def_228 .def_538)))
(let ((.def_540 (and .def_236 .def_539)))
(let ((.def_541 (and .def_240 .def_540)))
(let ((.def_542 (and .def_318 .def_541)))
(let ((.def_543 (and .def_252 .def_542)))
(let ((.def_546 (and .def_543 .def_545)))
(let ((.def_547 (and .def_19 .def_546)))
(let ((.def_452 (and .PC.2.next .def_451)))
(let ((.def_453 (and .def_262 .def_452)))
(let ((.def_422 (= |__NONDET__71__82$main#18| (_ bv0 32))))
(let ((.def_423 (not .def_422)))
(let ((.def_406 (= |__NONDET__10__14$main#16| (_ bv3 32))))
(let ((.def_394 (= irp_choice__11$main.next |__NONDET_INLINE_INIT__12__12$main#15|)))
(let ((.def_395 (and .def_83 .def_394)))
(let ((.def_398 (and .def_91 .def_395)))
(let ((.def_399 (and .def_93 .def_398)))
(let ((.def_396 (and .def_85 .def_395)))
(let ((.def_397 (and .def_89 .def_396)))
(let ((.def_400 (or .def_397 .def_399)))
(let ((.def_401 (and .def_194 .def_400)))
(let ((.def_404 (and .def_401 .def_403)))
(let ((.def_407 (and .def_404 .def_406)))
(let ((.def_392 (= irpStack__MinorFunction__35$main.next |__NONDET_INLINE_INIT__36__48$main#17|)))
(let ((.def_408 (and .def_392 .def_407)))
(let ((.def_409 (and .def_106 .def_408)))
(let ((.def_411 (and .def_409 .def_410)))
(let ((.def_417 (and .def_411 .def_412)))
(let ((.def_419 (and .def_417 .def_418)))
(let ((.def_414 (and .def_411 .def_413)))
(let ((.def_416 (and .def_414 .def_415)))
(let ((.def_420 (or .def_416 .def_419)))
(let ((.def_424 (and .def_420 .def_423)))
(let ((.def_389 (= |__NONDET__71__83$main#19| (_ bv1 32))))
(let ((.def_431 (and .def_389 .def_424)))
(let ((.def_433 (and .def_431 .def_432)))
(let ((.def_428 (and .def_420 .def_422)))
(let ((.def_430 (and .def_428 .def_429)))
(let ((.def_434 (or .def_430 .def_433)))
(let ((.def_390 (not .def_389)))
(let ((.def_425 (and .def_390 .def_424)))
(let ((.def_427 (and .def_425 .def_426)))
(let ((.def_435 (or .def_427 .def_434)))
(let ((.def_436 (and .def_195 .def_435)))
(let ((.def_197 (= s.next (_ bv5 32))))
(let ((.def_198 (not .def_197)))
(let ((.def_437 (and .def_198 .def_436)))
(let ((.def_174 (= s.next (_ bv3 32))))
(let ((.def_200 (not .def_174)))
(let ((.def_438 (and .def_200 .def_437)))
(let ((.def_439 (and .def_204 .def_438)))
(let ((.def_440 (and .def_208 .def_439)))
(let ((.def_441 (and .def_216 .def_440)))
(let ((.def_442 (and .def_220 .def_441)))
(let ((.def_443 (and .def_224 .def_442)))
(let ((.def_444 (and .def_228 .def_443)))
(let ((.def_445 (and .def_232 .def_444)))
(let ((.def_446 (and .def_236 .def_445)))
(let ((.def_447 (and .def_240 .def_446)))
(let ((.def_448 (and .def_244 .def_447)))
(let ((.def_449 (and .def_318 .def_448)))
(let ((.def_450 (and .def_252 .def_449)))
(let ((.def_454 (and .def_450 .def_453)))
(let ((.def_455 (and .def_19 .def_454)))
(let ((.def_382 (and .PC.1.next .PC.0.next)))
(let ((.def_383 (and .def_259 .def_382)))
(let ((.def_384 (and .def_262 .def_383)))
(let ((.def_352 (= |__NONDET__117__112$main#13| (_ bv0 32))))
(let ((.def_353 (not .def_352)))
(let ((.def_345 (= |__NONDET__10__14$main#11| (_ bv3 32))))
(let ((.def_335 (= irp_choice__11$main.next |__NONDET_INLINE_INIT__12__12$main#10|)))
(let ((.def_336 (and .def_83 .def_335)))
(let ((.def_339 (and .def_91 .def_336)))
(let ((.def_340 (and .def_93 .def_339)))
(let ((.def_337 (and .def_85 .def_336)))
(let ((.def_338 (and .def_89 .def_337)))
(let ((.def_341 (or .def_338 .def_340)))
(let ((.def_342 (and .def_97 .def_341)))
(let ((.def_100 (= setEventCalled.next (_ bv0 32))))
(let ((.def_343 (and .def_100 .def_342)))
(let ((.def_346 (and .def_343 .def_345)))
(let ((.def_333 (= irpStack__MinorFunction__35$main.next |__NONDET_INLINE_INIT__36__48$main#12|)))
(let ((.def_347 (and .def_333 .def_346)))
(let ((.def_107 (not .def_106)))
(let ((.def_348 (and .def_107 .def_347)))
(let ((.def_110 (= irpStack__MinorFunction__35$main.next (_ bv23 32))))
(let ((.def_349 (and .def_110 .def_348)))
(let ((.def_350 (and .def_174 .def_349)))
(let ((.def_354 (and .def_350 .def_353)))
(let ((.def_330 (= |__NONDET__117__113$main#14| (_ bv1 32))))
(let ((.def_362 (and .def_330 .def_354)))
(let ((.def_361 (= returnVal2__118$main.next (_ bv3221225473 32))))
(let ((.def_363 (and .def_361 .def_362)))
(let ((.def_359 (= returnVal2__118$main.next (_ bv0 32))))
(let ((.def_358 (and .def_350 .def_352)))
(let ((.def_360 (and .def_358 .def_359)))
(let ((.def_364 (or .def_360 .def_363)))
(let ((.def_356 (= returnVal2__118$main.next (_ bv259 32))))
(let ((.def_331 (not .def_330)))
(let ((.def_355 (and .def_331 .def_354)))
(let ((.def_357 (and .def_355 .def_356)))
(let ((.def_365 (or .def_357 .def_364)))
(let ((.def_366 (and .def_195 .def_365)))
(let ((.def_367 (and .def_198 .def_366)))
(let ((.def_368 (and .def_200 .def_367)))
(let ((.def_369 (and .def_208 .def_368)))
(let ((.def_370 (and .def_212 .def_369)))
(let ((.def_371 (and .def_216 .def_370)))
(let ((.def_372 (and .def_220 .def_371)))
(let ((.def_373 (and .def_224 .def_372)))
(let ((.def_374 (and .def_228 .def_373)))
(let ((.def_375 (and .def_232 .def_374)))
(let ((.def_376 (and .def_236 .def_375)))
(let ((.def_377 (and .def_240 .def_376)))
(let ((.def_378 (and .def_244 .def_377)))
(let ((.def_379 (and .def_318 .def_378)))
(let ((.def_380 (and .def_248 .def_379)))
(let ((.def_381 (and .def_252 .def_380)))
(let ((.def_385 (and .def_381 .def_384)))
(let ((.def_386 (and .def_19 .def_385)))
(let ((.def_324 (and .def_259 .def_323)))
(let ((.def_325 (and .def_262 .def_324)))
(let ((.def_290 (= |__NONDET__147__134$main#8| (_ bv0 32))))
(let ((.def_291 (not .def_290)))
(let ((.def_282 (= |__NONDET__10__14$main#6| (_ bv3 32))))
(let ((.def_272 (= irp_choice__11$main.next |__NONDET_INLINE_INIT__12__12$main#5|)))
(let ((.def_273 (and .def_83 .def_272)))
(let ((.def_276 (and .def_91 .def_273)))
(let ((.def_277 (and .def_93 .def_276)))
(let ((.def_274 (and .def_85 .def_273)))
(let ((.def_275 (and .def_89 .def_274)))
(let ((.def_278 (or .def_275 .def_277)))
(let ((.def_279 (and .def_97 .def_278)))
(let ((.def_280 (and .def_100 .def_279)))
(let ((.def_283 (and .def_280 .def_282)))
(let ((.def_270 (= irpStack__MinorFunction__35$main.next |__NONDET_INLINE_INIT__36__48$main#7|)))
(let ((.def_284 (and .def_270 .def_283)))
(let ((.def_285 (and .def_107 .def_284)))
(let ((.def_111 (not .def_110)))
(let ((.def_286 (and .def_111 .def_285)))
(let ((.def_114 (= irpStack__MinorFunction__35$main.next (_ bv2 32))))
(let ((.def_287 (and .def_114 .def_286)))
(let ((.def_288 (and .def_174 .def_287)))
(let ((.def_292 (and .def_288 .def_291)))
(let ((.def_267 (= |__NONDET__147__135$main#9| (_ bv1 32))))
(let ((.def_300 (and .def_267 .def_292)))
(let ((.def_299 (= returnVal2__148$main.next (_ bv3221225473 32))))
(let ((.def_301 (and .def_299 .def_300)))
(let ((.def_297 (= returnVal2__148$main.next (_ bv0 32))))
(let ((.def_296 (and .def_288 .def_290)))
(let ((.def_298 (and .def_296 .def_297)))
(let ((.def_302 (or .def_298 .def_301)))
(let ((.def_294 (= returnVal2__148$main.next (_ bv259 32))))
(let ((.def_268 (not .def_267)))
(let ((.def_293 (and .def_268 .def_292)))
(let ((.def_295 (and .def_293 .def_294)))
(let ((.def_303 (or .def_295 .def_302)))
(let ((.def_304 (and .def_195 .def_303)))
(let ((.def_305 (and .def_198 .def_304)))
(let ((.def_306 (and .def_200 .def_305)))
(let ((.def_307 (and .def_204 .def_306)))
(let ((.def_308 (and .def_212 .def_307)))
(let ((.def_309 (and .def_216 .def_308)))
(let ((.def_310 (and .def_220 .def_309)))
(let ((.def_311 (and .def_224 .def_310)))
(let ((.def_312 (and .def_228 .def_311)))
(let ((.def_313 (and .def_232 .def_312)))
(let ((.def_314 (and .def_236 .def_313)))
(let ((.def_315 (and .def_240 .def_314)))
(let ((.def_316 (and .def_244 .def_315)))
(let ((.def_319 (and .def_316 .def_318)))
(let ((.def_320 (and .def_248 .def_319)))
(let ((.def_321 (and .def_252 .def_320)))
(let ((.def_326 (and .def_321 .def_325)))
(let ((.def_327 (and .def_19 .def_326)))
(let ((.def_260 (and .def_257 .def_259)))
(let ((.def_263 (and .def_260 .def_262)))
(let ((.def_177 (= |__NONDET__195__156$main#3| (_ bv0 32))))
(let ((.def_178 (not .def_177)))
(let ((.def_117 (= irpStack__MinorFunction__35$main.next (_ bv1 32))))
(let ((.def_118 (not .def_117)))
(let ((.def_115 (not .def_114)))
(let ((.def_103 (= |__NONDET__10__14$main#1| (_ bv3 32))))
(let ((.def_80 (= irp_choice__11$main.next |__NONDET_INLINE_INIT__12__12$main#0|)))
(let ((.def_84 (and .def_80 .def_83)))
(let ((.def_92 (and .def_84 .def_91)))
(let ((.def_94 (and .def_92 .def_93)))
(let ((.def_86 (and .def_84 .def_85)))
(let ((.def_90 (and .def_86 .def_89)))
(let ((.def_95 (or .def_90 .def_94)))
(let ((.def_98 (and .def_95 .def_97)))
(let ((.def_101 (and .def_98 .def_100)))
(let ((.def_104 (and .def_101 .def_103)))
(let ((.def_77 (= irpStack__MinorFunction__35$main.next |__NONDET_INLINE_INIT__36__48$main#2|)))
(let ((.def_105 (and .def_77 .def_104)))
(let ((.def_108 (and .def_105 .def_107)))
(let ((.def_112 (and .def_108 .def_111)))
(let ((.def_116 (and .def_112 .def_115)))
(let ((.def_119 (and .def_116 .def_118)))
(let ((.def_74 (= irpStack__MinorFunction__35$main.next (_ bv5 32))))
(let ((.def_154 (and .def_74 .def_119)))
(let ((.def_153 (and .def_116 .def_117)))
(let ((.def_155 (or .def_153 .def_154)))
(let ((.def_75 (not .def_74)))
(let ((.def_120 (and .def_75 .def_119)))
(let ((.def_71 (= irpStack__MinorFunction__35$main.next (_ bv3 32))))
(let ((.def_152 (and .def_71 .def_120)))
(let ((.def_156 (or .def_152 .def_155)))
(let ((.def_72 (not .def_71)))
(let ((.def_121 (and .def_72 .def_120)))
(let ((.def_68 (= irpStack__MinorFunction__35$main.next (_ bv6 32))))
(let ((.def_151 (and .def_68 .def_121)))
(let ((.def_157 (or .def_151 .def_156)))
(let ((.def_69 (not .def_68)))
(let ((.def_122 (and .def_69 .def_121)))
(let ((.def_65 (= irpStack__MinorFunction__35$main.next (_ bv13 32))))
(let ((.def_150 (and .def_65 .def_122)))
(let ((.def_158 (or .def_150 .def_157)))
(let ((.def_66 (not .def_65)))
(let ((.def_123 (and .def_66 .def_122)))
(let ((.def_62 (= irpStack__MinorFunction__35$main.next (_ bv4 32))))
(let ((.def_149 (and .def_62 .def_123)))
(let ((.def_159 (or .def_149 .def_158)))
(let ((.def_63 (not .def_62)))
(let ((.def_124 (and .def_63 .def_123)))
(let ((.def_59 (= irpStack__MinorFunction__35$main.next (_ bv7 32))))
(let ((.def_148 (and .def_59 .def_124)))
(let ((.def_160 (or .def_148 .def_159)))
(let ((.def_60 (not .def_59)))
(let ((.def_125 (and .def_60 .def_124)))
(let ((.def_56 (= irpStack__MinorFunction__35$main.next (_ bv8 32))))
(let ((.def_147 (and .def_56 .def_125)))
(let ((.def_161 (or .def_147 .def_160)))
(let ((.def_57 (not .def_56)))
(let ((.def_126 (and .def_57 .def_125)))
(let ((.def_53 (= irpStack__MinorFunction__35$main.next (_ bv9 32))))
(let ((.def_146 (and .def_53 .def_126)))
(let ((.def_162 (or .def_146 .def_161)))
(let ((.def_54 (not .def_53)))
(let ((.def_127 (and .def_54 .def_126)))
(let ((.def_50 (= irpStack__MinorFunction__35$main.next (_ bv12 32))))
(let ((.def_145 (and .def_50 .def_127)))
(let ((.def_163 (or .def_145 .def_162)))
(let ((.def_51 (not .def_50)))
(let ((.def_128 (and .def_51 .def_127)))
(let ((.def_47 (= irpStack__MinorFunction__35$main.next (_ bv10 32))))
(let ((.def_144 (and .def_47 .def_128)))
(let ((.def_164 (or .def_144 .def_163)))
(let ((.def_48 (not .def_47)))
(let ((.def_129 (and .def_48 .def_128)))
(let ((.def_44 (= irpStack__MinorFunction__35$main.next (_ bv11 32))))
(let ((.def_143 (and .def_44 .def_129)))
(let ((.def_165 (or .def_143 .def_164)))
(let ((.def_45 (not .def_44)))
(let ((.def_130 (and .def_45 .def_129)))
(let ((.def_41 (= irpStack__MinorFunction__35$main.next (_ bv15 32))))
(let ((.def_142 (and .def_41 .def_130)))
(let ((.def_166 (or .def_142 .def_165)))
(let ((.def_42 (not .def_41)))
(let ((.def_131 (and .def_42 .def_130)))
(let ((.def_38 (= irpStack__MinorFunction__35$main.next (_ bv16 32))))
(let ((.def_141 (and .def_38 .def_131)))
(let ((.def_167 (or .def_141 .def_166)))
(let ((.def_39 (not .def_38)))
(let ((.def_132 (and .def_39 .def_131)))
(let ((.def_35 (= irpStack__MinorFunction__35$main.next (_ bv17 32))))
(let ((.def_140 (and .def_35 .def_132)))
(let ((.def_168 (or .def_140 .def_167)))
(let ((.def_36 (not .def_35)))
(let ((.def_133 (and .def_36 .def_132)))
(let ((.def_32 (= irpStack__MinorFunction__35$main.next (_ bv18 32))))
(let ((.def_139 (and .def_32 .def_133)))
(let ((.def_169 (or .def_139 .def_168)))
(let ((.def_33 (not .def_32)))
(let ((.def_134 (and .def_33 .def_133)))
(let ((.def_29 (= irpStack__MinorFunction__35$main.next (_ bv19 32))))
(let ((.def_138 (and .def_29 .def_134)))
(let ((.def_170 (or .def_138 .def_169)))
(let ((.def_30 (not .def_29)))
(let ((.def_135 (and .def_30 .def_134)))
(let ((.def_26 (= irpStack__MinorFunction__35$main.next (_ bv20 32))))
(let ((.def_137 (and .def_26 .def_135)))
(let ((.def_171 (or .def_137 .def_170)))
(let ((.def_27 (not .def_26)))
(let ((.def_136 (and .def_27 .def_135)))
(let ((.def_172 (or .def_136 .def_171)))
(let ((.def_175 (and .def_172 .def_174)))
(let ((.def_179 (and .def_175 .def_178)))
(let ((.def_22 (= |__NONDET__195__157$main#4| (_ bv1 32))))
(let ((.def_190 (and .def_22 .def_179)))
(let ((.def_189 (= returnVal2__196$main.next (_ bv3221225473 32))))
(let ((.def_191 (and .def_189 .def_190)))
(let ((.def_186 (= returnVal2__196$main.next (_ bv0 32))))
(let ((.def_185 (and .def_175 .def_177)))
(let ((.def_187 (and .def_185 .def_186)))
(let ((.def_192 (or .def_187 .def_191)))
(let ((.def_183 (= returnVal2__196$main.next (_ bv259 32))))
(let ((.def_23 (not .def_22)))
(let ((.def_180 (and .def_23 .def_179)))
(let ((.def_184 (and .def_180 .def_183)))
(let ((.def_193 (or .def_184 .def_192)))
(let ((.def_196 (and .def_193 .def_195)))
(let ((.def_199 (and .def_196 .def_198)))
(let ((.def_201 (and .def_199 .def_200)))
(let ((.def_205 (and .def_201 .def_204)))
(let ((.def_209 (and .def_205 .def_208)))
(let ((.def_213 (and .def_209 .def_212)))
(let ((.def_217 (and .def_213 .def_216)))
(let ((.def_221 (and .def_217 .def_220)))
(let ((.def_225 (and .def_221 .def_224)))
(let ((.def_229 (and .def_225 .def_228)))
(let ((.def_233 (and .def_229 .def_232)))
(let ((.def_237 (and .def_233 .def_236)))
(let ((.def_241 (and .def_237 .def_240)))
(let ((.def_245 (and .def_241 .def_244)))
(let ((.def_249 (and .def_245 .def_248)))
(let ((.def_253 (and .def_249 .def_252)))
(let ((.def_264 (and .def_253 .def_263)))
(let ((.def_265 (and .def_19 .def_264)))
(let ((.def_328 (or .def_265 .def_327)))
(let ((.def_387 (or .def_328 .def_386)))
(let ((.def_456 (or .def_387 .def_455)))
(let ((.def_548 (or .def_456 .def_547)))
(let ((.def_642 (or .def_548 .def_641)))
(let ((.def_678 (or .def_642 .def_677)))
(let ((.def_683 (or .def_678 .def_682)))
(let ((.def_687 (or .def_683 .def_686)))
(let ((.def_692 (or .def_687 .def_691)))
(let ((.def_696 (or .def_692 .def_695)))
(let ((.def_700 (or .def_696 .def_699)))
(let ((.def_703 (or .def_700 .def_702)))
.def_703)))))))))))))))))))))))))))))))))))))))))))))))))))))))))))))))))))))))))))))))))))))))))))))))))))))))))))))))))))))))))))))))))))))))))))))))))))))))))))))))))))))))))))))))))))))))))))))))))))))))))))))))))))))))))))))))))))))))))))))))))))))))))))))))))))))))))))))))))))))))))))))))))))))))))))))))))))))))))))))))))))))))))))))))))))))))))))))))))))))))))))))))))))))))))))))))))))))))))))))))))))))))))))))))))))))))))))))))))))))))))))))))))))))))))))))))))))))))))))))))))))))))))))))))))))))))))))))))))))))))))))))))))))))))))))))))))))))))))))))))))))))))))))))))))))))))))))))))) (state |.PC.0.next| |.PC.1.next| |.PC.2.next| |.PC.3.next| |returnVal2__118$main.next| |returnVal2__148$main.next| |compRegistered.next| |__INLINE_TEMP__67$main.next| |status__2$main.next| |__INLINE_TEMP__113$main.next| |__RET__$main.next| |status__27$main.next| |__INLINE_TEMP__0$main.next| |__INLINE_TEMP__19$main.next| |lowerDriverReturn.next| |returnVal2__72$main.next| |__INLINE_TEMP__191$main.next| |returnVal2__196$main.next| |irpStack__MinorFunction__35$main.next| |myStatus.next| |s.next| |irp_choice__11$main.next| |setEventCalled.next|))))
(assert (forall ((|setEventCalled| (_ BitVec 32)) (|setEventCalled.next| (_ BitVec 32)) (|irp_choice__11$main| (_ BitVec 32)) (|irp_choice__11$main.next| (_ BitVec 32)) (|s| (_ BitVec 32)) (|.PC.3.next| Bool) (|s.next| (_ BitVec 32)) (|myStatus| (_ BitVec 32)) (|myStatus.next| (_ BitVec 32)) (|returnVal2__148$main.next| (_ BitVec 32)) (|returnVal2__148$main| (_ BitVec 32)) (|returnVal2__118$main.next| (_ BitVec 32)) (|returnVal2__118$main| (_ BitVec 32)) (|compRegistered.next| (_ BitVec 32)) (|compRegistered| (_ BitVec 32)) (|__INLINE_TEMP__67$main.next| (_ BitVec 32)) (|__INLINE_TEMP__67$main| (_ BitVec 32)) (|status__2$main.next| (_ BitVec 32)) (|status__2$main| (_ BitVec 32)) (|__INLINE_TEMP__113$main.next| (_ BitVec 32)) (|__INLINE_TEMP__113$main| (_ BitVec 32)) (|__RET__$main.next| (_ BitVec 32)) (|__RET__$main| (_ BitVec 32)) (|status__27$main.next| (_ BitVec 32)) (|status__27$main| (_ BitVec 32)) (|__INLINE_TEMP__0$main.next| (_ BitVec 32)) (|__INLINE_TEMP__0$main| (_ BitVec 32)) (|__INLINE_TEMP__19$main.next| (_ BitVec 32)) (|__INLINE_TEMP__19$main| (_ BitVec 32)) (|lowerDriverReturn.next| (_ BitVec 32)) (|lowerDriverReturn| (_ BitVec 32)) (|returnVal2__196$main| (_ BitVec 32)) (|returnVal2__196$main.next| (_ BitVec 32)) (|returnVal2__72$main.next| (_ BitVec 32)) (|returnVal2__72$main| (_ BitVec 32)) (|irpStack__MinorFunction__35$main| (_ BitVec 32)) (|irpStack__MinorFunction__35$main.next| (_ BitVec 32)) (|__INLINE_TEMP__191$main.next| (_ BitVec 32)) (|__INLINE_TEMP__191$main| (_ BitVec 32)) (|s.SSA.2.ssa| (_ BitVec 32)) (|__NONDET__71__82$main#28| (_ BitVec 32)) (|__NONDET__10__14$main#26| (_ BitVec 32)) (|__NONDET_INLINE_INIT__12__12$main#25| (_ BitVec 32)) (|myStatus.SSA.1.ssa| (_ BitVec 32)) (|s.SSA.1.ssa| (_ BitVec 32)) (|setEventCalled.SSA.1.ssa| (_ BitVec 32)) (|__NONDET_INLINE_INIT__36__48$main#27| (_ BitVec 32)) (|__NONDET__71__83$main#29| (_ BitVec 32)) (|__NONDET__71__82$main#23| (_ BitVec 32)) (|__NONDET__10__14$main#21| (_ BitVec 32)) (|__NONDET_INLINE_INIT__12__12$main#20| (_ BitVec 32)) (|__NONDET_INLINE_INIT__36__48$main#22| (_ BitVec 32)) (|__NONDET__71__83$main#24| (_ BitVec 32)) (|__NONDET__71__82$main#18| (_ BitVec 32)) (|__NONDET__10__14$main#16| (_ BitVec 32)) (|__NONDET_INLINE_INIT__12__12$main#15| (_ BitVec 32)) (|__NONDET_INLINE_INIT__36__48$main#17| (_ BitVec 32)) (|__NONDET__71__83$main#19| (_ BitVec 32)) (|__NONDET__117__112$main#13| (_ BitVec 32)) (|__NONDET__10__14$main#11| (_ BitVec 32)) (|__NONDET_INLINE_INIT__12__12$main#10| (_ BitVec 32)) (|__NONDET_INLINE_INIT__36__48$main#12| (_ BitVec 32)) (|__NONDET__117__113$main#14| (_ BitVec 32)) (|__NONDET__147__134$main#8| (_ BitVec 32)) (|__NONDET__10__14$main#6| (_ BitVec 32)) (|__NONDET_INLINE_INIT__12__12$main#5| (_ BitVec 32)) (|__NONDET_INLINE_INIT__36__48$main#7| (_ BitVec 32)) (|__NONDET__147__135$main#9| (_ BitVec 32)) (|__NONDET__195__156$main#3| (_ BitVec 32)) (|__NONDET__10__14$main#1| (_ BitVec 32)) (|__NONDET_INLINE_INIT__12__12$main#0| (_ BitVec 32)) (|__NONDET_INLINE_INIT__36__48$main#2| (_ BitVec 32)) (|__NONDET__195__157$main#4| (_ BitVec 32)) (|.PC.2.next| Bool) (|.PC.0.next| Bool) (|.PC.1.next| Bool) (|.PC.3| Bool) (|.PC.2| Bool) (|.PC.1| Bool) (|.PC.0| Bool)) (=> (state |.PC.0| |.PC.1| |.PC.2| |.PC.3| |returnVal2__118$main| |returnVal2__148$main| |compRegistered| |__INLINE_TEMP__67$main| |status__2$main| |__INLINE_TEMP__113$main| |__RET__$main| |status__27$main| |__INLINE_TEMP__0$main| |__INLINE_TEMP__19$main| |lowerDriverReturn| |returnVal2__72$main| |__INLINE_TEMP__191$main| |returnVal2__196$main| |irpStack__MinorFunction__35$main| |myStatus| |s| |irp_choice__11$main| |setEventCalled|) (let ((.def_15 (not .PC.2)))
(let ((.def_12 (not .PC.1)))
(let ((.def_10 (not .PC.0)))
(let ((.def_13 (and .def_10 .def_12)))
(let ((.def_16 (and .def_13 .def_15)))
(let ((.def_701 (and .def_16 .PC.3)))
(let ((.def_704 (not .def_701)))
.def_704))))))))))
(check-sat)
